18
XYZ file generated by Avogadro.
C  -6.7053734277  1.7255468322  -0.0118849211
H  -7.5786888273  1.1900932130  0.3730039147
H  -6.8150700768  1.8136550344  -1.0967240421
C  -6.6024390127  3.0944740946  0.6400065200
H  -5.8245215091  1.1129389395  0.1975869584
H  -7.5567539124  3.6165537954  0.5032177501
H  -6.4601793934  2.9749744893  1.7199813078
C  -5.4862666272  3.9645473587  0.0588872041
H  -5.6283088540  4.0723717873  -1.0232697812
H  -5.5869014829  4.9692476016  0.4881085407
C  -4.0844460626  3.4256003475  0.3525890524
H  -3.9518634620  2.4418310297  -0.1109038974
C  -3.0048573100  4.3307408758  -0.1690433774
H  -3.9516796490  3.2794016910  1.4308635291
H  -2.4663797957  3.9959482492  -1.0531682094
C  -2.6686488091  5.4971840154  0.3932933610
H  -3.1803903701  5.8719528860  1.2743416530
H  -1.8746649794  6.1092978999  -0.0230189266